&CONTROL
  title = 'k-grid_test'
  calculation = 'scf'
  etot_conv_thr =   1.0000000000d-06
  forc_conv_thr =   1.0000000000d-05
  pseudo_dir = '/home/mehlhorn/pseudos/'
/
&SYSTEM
  ecutwfc =   MecutM
  ecutrho = MecutrhoM
  ibrav = 8
  A = 6.9847600000
  B = 7.2284100000
  C = 4.8493600000
  nat = 22
  ntyp = 3
  occupations = 'fixed'
/
&ELECTRONS
  conv_thr =   1.000000000d-08
/
&IONS
/
&CELL
/
ATOMIC_SPECIES
B      10.811 b_pbesol_v1.4.uspp.F.UPF
Ba     137.327 Ba.nc.z_10.oncvpsp4.dojo.v4-sp.upf
H      1.00794 H_ONCV_PBEsol-1.0.upf  
ATOMIC_POSITIONS crystal
Ba           0.5000000000       0.5000000000       0.5000800000 
Ba           0.0000000000       0.0000000000       0.9999200000 
B            0.6308000000       0.2540000000       0.0000200000 
B            0.3692000000       0.7460000000       0.0000200000 
B            0.1308000000       0.2460000000       0.4999800000 
B            0.8692000000       0.7540000000       0.4999800000 
H            0.4582000000       0.2840000000       0.0002600000 
H            0.5418000000       0.7160000000       0.0002600000 
H            0.9582000000       0.2160000000       0.4997400000 
H            0.0418000000       0.7840000000       0.4997400000 
H            0.7204000000       0.4002000000       0.0000000000 
H            0.2796000000       0.5998000000       0.0000000000 
H            0.2204000000       0.0998000000       0.5000000000 
H            0.7796000000       0.9002000000       0.5000000000 
H            0.6689000000       0.1656000000       0.7913400000 
H            0.3311000000       0.8344000000       0.7913400000 
H            0.1689000000       0.3344000000       0.7086600000 
H            0.8311000000       0.6656000000       0.7086600000 
H            0.3311000000       0.8344000000       0.2086600000 
H            0.6689000000       0.1656000000       0.2086600000 
H            0.8311000000       0.6656000000       0.2913400000 
H            0.1689000000       0.3344000000       0.2913400000 
K_POINTS automatic
  MNM MNM MNM 0 0 0
  
