&CONTROL
  title = 'pre-ph'
  calculation = 'scf'
  pseudo_dir = '/home/mehlhorn/pseudos/'
/
&SYSTEM
  ecutwfc =   100
  ecutrho =   800
  ibrav = 8
 A = 6.697530206603164,
 B = 6.858841962987056,
 C = 4.626141505660661,
  nat = 22
  ntyp = 3
  occupations = 'fixed'
/
&ELECTRONS
  conv_thr =   1.000000000d-10
/
&IONS
/
ATOMIC_SPECIES
B      10.811 b_pbesol_v1.4.uspp.F.UPF
Ba     137.327 Ba.nc.z_10.oncvpsp4.dojo.v4-sp.upf
H      1.00794 H_ONCV_PBEsol-1.0.upf

K_POINTS automatic
  5 5 5 0 0 0
  
ATOMIC_POSITIONS (crystal)
Ba               0.5000000000        0.5000000000        0.4999978744
Ba               0.0000000000        0.0000000000        1.0000021256
B                0.6110132871        0.2397655756       -0.0000039158
B                0.3889867129        0.7602344244       -0.0000039158
B                0.1110132871        0.2602344244        0.5000039158
B                0.8889867129        0.7397655756        0.5000039158
H                0.4351466760        0.2920019942        0.0000302992
H                0.5648533240        0.7079980058        0.0000302992
H                0.9351466760        0.2079980058        0.4999697008
H                0.0648533240        0.7920019942        0.4999697008
H                0.7219178291        0.3843133475       -0.0000108458
H                0.2780821709        0.6156866525       -0.0000108458
H                0.2219178291        0.1156866525        0.5000108458
H                0.7780821709        0.8843133475        0.5000108458
H                0.6403692328        0.1428665047        0.7805749048
H                0.3596307672        0.8571334953        0.7805749048
H                0.1403692328        0.3571334953        0.7194250952
H                0.8596307672        0.6428665047        0.7194250952
H                0.3595981514        0.8571271138        0.2194124448
H                0.6404018486        0.1428728862        0.2194124448
H                0.8595981514        0.6428728862        0.2805875552
H                0.1404018486        0.3571271138        0.2805875552
