&CONTROL
  title = 'pre-ph'
  calculation = 'scf'
  pseudo_dir = '/home/mehlhorn/pseudos/'
/
&SYSTEM
  ecutwfc =   100
  ecutrho =   800
  ibrav = 8
 A = 6.658603491777003,
 B = 6.8379152225462185,
 C = 4.620984860722162,
  nat = 22
  ntyp = 3
  occupations = 'fixed'
/
&ELECTRONS
  conv_thr =   1.000000000d-10
/
&IONS
/
ATOMIC_SPECIES
B      10.811 b_pbesol_v1.4.uspp.F.UPF
Ba     137.327 Ba.nc.z_10.oncvpsp4.dojo.v4-sp.upf
H      1.00794 H_ONCV_PBEsol-1.0.upf

K_POINTS automatic
  5 5 5 0 0 0
  
ATOMIC_POSITIONS (crystal)
Ba               0.5000000000        0.5000000000        0.4999945681
Ba               0.0000000000        0.0000000000        1.0000054319
B                0.6095003448        0.2386631630       -0.0000021843
B                0.3904996552        0.7613368370       -0.0000021843
B                0.1095003448        0.2613368370        0.5000021843
B                0.8904996552        0.7386631630        0.5000021843
H                0.4330246793        0.2922210837        0.0000220131
H                0.5669753207        0.7077789163        0.0000220131
H                0.9330246793        0.2077789163        0.4999779869
H                0.0669753207        0.7922210837        0.4999779869
H                0.7220941998        0.3829014643       -0.0000120913
H                0.2779058002        0.6170985357       -0.0000120913
H                0.2220941998        0.1170985357        0.5000120913
H                0.7779058002        0.8829014643        0.5000120913
H                0.6383891890        0.1413148349        0.7803722756
H                0.3616108110        0.8586851651        0.7803722756
H                0.1383891890        0.3586851651        0.7196277244
H                0.8616108110        0.6413148349        0.7196277244
H                0.3615789991        0.8586819703        0.2196178750
H                0.6384210009        0.1413180297        0.2196178750
H                0.8615789991        0.6413180297        0.2803821250
H                0.1384210009        0.3586819703        0.2803821250
