
     Program PWSCF v.7.3.1 starts on 12Aug2024 at 11:12:54 

     This program is part of the open-source Quantum ESPRESSO suite
     for quantum simulation of materials; please cite
         "P. Giannozzi et al., J. Phys.:Condens. Matter 21 395502 (2009);
         "P. Giannozzi et al., J. Phys.:Condens. Matter 29 465901 (2017);
         "P. Giannozzi et al., J. Chem. Phys. 152 154105 (2020);
          URL http://www.quantum-espresso.org", 
     in publications or presentations arising from this work. More details at
     http://www.quantum-espresso.org/quote

     Parallel version (MPI), running on    24 processors

     MPI processes distributed on     1 nodes
     93676 MiB available memory on the printing compute node when the environment starts

     Waiting for input...
     Reading input from standard input

     Current dimensions of program PWSCF are:
     Max number of different atomic species (ntypx) = 10
     Max number of k-points (npk) =  40000
     Max angular momentum in pseudopotentials (lmaxx) =  4

     R & G space division:  proc/nbgrp/npool/nimage =      24
     Subspace diagonalization in iterative solution of the eigenvalue problem:
     a serial algorithm will be used


     Parallelization info
     --------------------
     sticks:   dense  smooth     PW     G-vecs:    dense   smooth      PW
     Min         485     242     65                25330     8952    1257
     Max         487     243     66                25332     8955    1260
     Sum       11659    5815   1573               607945   214893   30209

     Using Slab Decomposition


     Title: 
     pre-ph                                                                     


     bravais-lattice index     =            8
     lattice parameter (alat)  =      13.5925  a.u.
     unit-cell volume          =    1591.0719 (a.u.)^3
     number of atoms/cell      =           22
     number of atomic types    =            3
     number of electrons       =        48.00
     number of Kohn-Sham states=           24
     kinetic-energy cutoff     =     100.0000  Ry
     charge density cutoff     =     800.0000  Ry
     scf convergence threshold =      1.0E-10
     mixing beta               =       0.7000
     number of iterations used =            8  plain     mixing
     Exchange-correlation= PBESOL
                           (   1   4  10   8   0   0   0)

     celldm(1)=  13.592533  celldm(2)=   0.991061  celldm(3)=   0.639276
     celldm(4)=   0.000000  celldm(5)=   0.000000  celldm(6)=   0.000000

     crystal axes: (cart. coord. in units of alat)
               a(1) = (   1.000000   0.000000   0.000000 )  
               a(2) = (   0.000000   0.991061   0.000000 )  
               a(3) = (   0.000000   0.000000   0.639276 )  

     reciprocal axes: (cart. coord. in units 2 pi/alat)
               b(1) = (  1.000000  0.000000  0.000000 )  
               b(2) = (  0.000000  1.009020  0.000000 )  
               b(3) = (  0.000000  0.000000  1.564270 )  


     PseudoPot. # 1 for B  read from file:
     /home/mehlhorn/pseudos/b_pbesol_v1.4.uspp.F.UPF
     MD5 check sum: 369b69bef2c3aeed4453bd8b804fd6a8
     Pseudo is Ultrasoft + core correction, Zval =  3.0
     Generated by new atomic code, or converted to UPF format
     Using radial grid of  781 points,  4 beta functions with: 
                l(1) =   0
                l(2) =   0
                l(3) =   1
                l(4) =   1
     Q(r) pseudized with  8 coefficients,  rinner =    1.100   1.100   1.100


     PseudoPot. # 2 for Ba read from file:
     /home/mehlhorn/pseudos/Ba.nc.z_10.oncvpsp4.dojo.v4-sp.upf
     MD5 check sum: c10ed334bb677c0554edec7181ce9143
     Pseudo is Norm-conserving + core correction, Zval = 10.0
     Generated using ONCVPSP code by D. R. Hamann
     Using radial grid of 1938 points,  8 beta functions with: 
                l(1) =   0
                l(2) =   0
                l(3) =   1
                l(4) =   1
                l(5) =   2
                l(6) =   2
                l(7) =   3
                l(8) =   3

     PseudoPot. # 3 for H  read from file:
     /home/mehlhorn/pseudos/H_ONCV_PBEsol-1.0.upf
     MD5 check sum: 398ef8f67c0a7342c05c87c5e19ea467
     Pseudo is Norm-conserving, Zval =  1.0
     Generated using ONCVPSP code by D. R. Hamann
     Using radial grid of 1180 points,  2 beta functions with: 
                l(1) =   0
                l(2) =   0

     atomic species   valence    mass     pseudopotential
     B                 3.00    10.81100     B ( 1.00)
     Ba               10.00   137.32700     Ba( 1.00)
     H                 1.00     1.00794     H ( 1.00)

      4 Sym. Ops. (no inversion) found ( 2 have fractional translation)



   Cartesian axes

     site n.     atom                  positions (alat units)
         1        Ba     tau(   1) = (   0.5000000   0.4955305   0.3196405  )
         2        Ba     tau(   2) = (   0.0000000   0.0000000   0.6392731  )
         3        B      tau(   3) = (   0.6373762   0.2613155   0.0000101  )
         4        B      tau(   4) = (   0.3626238   0.7297454   0.0000101  )
         5        B      tau(   5) = (   0.1373762   0.2342150   0.3196278  )
         6        B      tau(   6) = (   0.8626238   0.7568460   0.3196278  )
         7        H      tau(   7) = (   0.4669090   0.2801534   0.0000018  )
         8        H      tau(   8) = (   0.5330910   0.7109075   0.0000018  )
         9        H      tau(   9) = (   0.9669090   0.2153770   0.3196361  )
        10        H      tau(  10) = (   0.0330910   0.7756839   0.3196361  )
        11        H      tau(  11) = (   0.7133543   0.4156187   0.0000096  )
        12        H      tau(  12) = (   0.2866457   0.5754423   0.0000096  )
        13        H      tau(  13) = (   0.2133543   0.0799118   0.3196282  )
        14        H      tau(  14) = (   0.7866457   0.9111492   0.3196282  )
        15        H      tau(  15) = (   0.6812530   0.1764206   0.4974552  )
        16        H      tau(  16) = (   0.3187470   0.8146403   0.4974552  )
        17        H      tau(  17) = (   0.1812530   0.3191099   0.4614584  )
        18        H      tau(  18) = (   0.8187470   0.6719511   0.4614584  )
        19        H      tau(  19) = (   0.3187476   0.8146407   0.1418418  )
        20        H      tau(  20) = (   0.6812524   0.1764202   0.1418418  )
        21        H      tau(  21) = (   0.8187476   0.6719507   0.1777960  )
        22        H      tau(  22) = (   0.1812524   0.3191102   0.1777960  )

     number of k points=    27
                       cart. coord. in units 2pi/alat
        k(    1) = (   0.0000000   0.0000000   0.0000000), wk =   0.0160000
        k(    2) = (   0.0000000   0.0000000   0.3128540), wk =   0.0320000
        k(    3) = (   0.0000000   0.0000000   0.6257081), wk =   0.0320000
        k(    4) = (   0.0000000   0.2018039   0.0000000), wk =   0.0320000
        k(    5) = (   0.0000000   0.2018039   0.3128540), wk =   0.0640000
        k(    6) = (   0.0000000   0.2018039   0.6257081), wk =   0.0640000
        k(    7) = (   0.0000000   0.4036079   0.0000000), wk =   0.0320000
        k(    8) = (   0.0000000   0.4036079   0.3128540), wk =   0.0640000
        k(    9) = (   0.0000000   0.4036079   0.6257081), wk =   0.0640000
        k(   10) = (   0.2000000   0.0000000   0.0000000), wk =   0.0320000
        k(   11) = (   0.2000000   0.0000000   0.3128540), wk =   0.0640000
        k(   12) = (   0.2000000   0.0000000   0.6257081), wk =   0.0640000
        k(   13) = (   0.2000000   0.2018039   0.0000000), wk =   0.0640000
        k(   14) = (   0.2000000   0.2018039   0.3128540), wk =   0.1280000
        k(   15) = (   0.2000000   0.2018039   0.6257081), wk =   0.1280000
        k(   16) = (   0.2000000   0.4036079   0.0000000), wk =   0.0640000
        k(   17) = (   0.2000000   0.4036079   0.3128540), wk =   0.1280000
        k(   18) = (   0.2000000   0.4036079   0.6257081), wk =   0.1280000
        k(   19) = (   0.4000000   0.0000000   0.0000000), wk =   0.0320000
        k(   20) = (   0.4000000   0.0000000   0.3128540), wk =   0.0640000
        k(   21) = (   0.4000000   0.0000000   0.6257081), wk =   0.0640000
        k(   22) = (   0.4000000   0.2018039   0.0000000), wk =   0.0640000
        k(   23) = (   0.4000000   0.2018039   0.3128540), wk =   0.1280000
        k(   24) = (   0.4000000   0.2018039   0.6257081), wk =   0.1280000
        k(   25) = (   0.4000000   0.4036079   0.0000000), wk =   0.0640000
        k(   26) = (   0.4000000   0.4036079   0.3128540), wk =   0.1280000
        k(   27) = (   0.4000000   0.4036079   0.6257081), wk =   0.1280000

     Dense  grid:   607945 G-vectors     FFT dimensions: ( 128, 128,  80)

     Smooth grid:   214893 G-vectors     FFT dimensions: (  90,  90,  60)

     Estimated max dynamical RAM per process >      72.34 MB

     Estimated total dynamical RAM >       1.70 GB

     Initial potential from superposition of free atoms

     starting charge      47.9682, renormalised to      48.0000
     Starting wfcs are   42 randomized atomic wfcs

     total cpu time spent up to now is       12.2 secs

     Self-consistent Calculation

     iteration #  1     ecut=   100.00 Ry     beta= 0.70
     Davidson diagonalization with overlap
     ethr =  1.00E-02,  avg # of iterations =  2.0

     total cpu time spent up to now is       30.0 secs

     total energy              =    -155.91005069 Ry
     estimated scf accuracy    <       2.16369781 Ry

     iteration #  2     ecut=   100.00 Ry     beta= 0.70
     Davidson diagonalization with overlap
     ethr =  4.51E-03,  avg # of iterations =  2.0

     total cpu time spent up to now is       47.1 secs

     total energy              =    -156.40154321 Ry
     estimated scf accuracy    <       0.37655699 Ry

     iteration #  3     ecut=   100.00 Ry     beta= 0.70
     Davidson diagonalization with overlap
     ethr =  7.84E-04,  avg # of iterations =  2.0

     total cpu time spent up to now is       64.2 secs

     total energy              =    -156.46517567 Ry
     estimated scf accuracy    <       0.00490518 Ry

     iteration #  4     ecut=   100.00 Ry     beta= 0.70
     Davidson diagonalization with overlap
     ethr =  1.02E-05,  avg # of iterations =  5.1

     total cpu time spent up to now is       88.9 secs

     total energy              =    -156.46822807 Ry
     estimated scf accuracy    <       0.00180928 Ry

     iteration #  5     ecut=   100.00 Ry     beta= 0.70
     Davidson diagonalization with overlap
     ethr =  3.77E-06,  avg # of iterations =  3.4

     total cpu time spent up to now is      106.6 secs

     total energy              =    -156.46885453 Ry
     estimated scf accuracy    <       0.00019902 Ry

     iteration #  6     ecut=   100.00 Ry     beta= 0.70
     Davidson diagonalization with overlap
     ethr =  4.15E-07,  avg # of iterations =  4.0

     total cpu time spent up to now is      126.2 secs

     total energy              =    -156.46893045 Ry
     estimated scf accuracy    <       0.00000155 Ry

     iteration #  7     ecut=   100.00 Ry     beta= 0.70
     Davidson diagonalization with overlap
     ethr =  3.23E-09,  avg # of iterations = 10.1

     total cpu time spent up to now is      169.8 secs

     total energy              =    -156.46894282 Ry
     estimated scf accuracy    <       0.00000091 Ry

     iteration #  8     ecut=   100.00 Ry     beta= 0.70
     Davidson diagonalization with overlap
     ethr =  1.89E-09,  avg # of iterations =  2.3

     total cpu time spent up to now is      185.5 secs

     total energy              =    -156.46894286 Ry
     estimated scf accuracy    <       0.00000013 Ry

     iteration #  9     ecut=   100.00 Ry     beta= 0.70
     Davidson diagonalization with overlap
     ethr =  2.61E-10,  avg # of iterations =  4.8

     total cpu time spent up to now is      206.5 secs

     total energy              =    -156.46894291 Ry
     estimated scf accuracy    <       0.00000003 Ry

     iteration # 10     ecut=   100.00 Ry     beta= 0.70
     Davidson diagonalization with overlap
     ethr =  7.11E-11,  avg # of iterations =  3.2

     total cpu time spent up to now is      224.3 secs

     total energy              =    -156.46894292 Ry
     estimated scf accuracy    <          4.5E-10 Ry

     iteration # 11     ecut=   100.00 Ry     beta= 0.70
     Davidson diagonalization with overlap
     ethr =  9.40E-13,  avg # of iterations =  7.3

     total cpu time spent up to now is      258.0 secs

     total energy              =    -156.46894292 Ry
     estimated scf accuracy    <          1.6E-10 Ry

     iteration # 12     ecut=   100.00 Ry     beta= 0.70
     Davidson diagonalization with overlap
     ethr =  3.34E-13,  avg # of iterations =  3.9

     total cpu time spent up to now is      277.6 secs

     End of self-consistent calculation

          k = 0.0000 0.0000 0.0000 ( 26943 PWs)   bands (ev):

   -24.6968 -24.6916 -10.1826 -10.1464  -9.9527  -9.9248  -9.8597  -9.8149
    -6.5589  -5.7454  -5.2186  -5.1672  -2.3086  -1.3376  -1.2597  -1.0083
    -0.9987  -0.7880  -0.7429  -0.5295  -0.2839  -0.0813  -0.0011   0.0049

          k = 0.0000 0.0000 0.3129 ( 26894 PWs)   bands (ev):

   -24.6914 -24.6872 -10.1229 -10.0937 -10.0473 -10.0239  -9.9387  -9.9173
    -6.2162  -5.5298  -5.3414  -5.3010  -2.0130  -1.6939  -1.4751  -1.1332
    -0.8999  -0.8441  -0.5988  -0.4629  -0.3143  -0.1577  -0.1519  -0.0654

          k = 0.0000 0.0000 0.6257 ( 26868 PWs)   bands (ev):

   -24.6821 -24.6805 -10.3134 -10.3092 -10.0021  -9.9879  -9.9333  -9.9226
    -5.5898  -5.5451  -5.5308  -5.2982  -1.9112  -1.8172  -1.7123  -1.4434
    -0.8822  -0.7932  -0.5459  -0.4110  -0.3207  -0.2707  -0.2021  -0.1490

          k = 0.0000 0.2018 0.0000 ( 26893 PWs)   bands (ev):

   -24.6963 -24.6921 -10.1680 -10.1315  -9.9738  -9.9435  -9.8554  -9.8191
    -6.4629  -5.7488  -5.3197  -5.2086  -2.1517  -1.4846  -1.3219  -0.8266
    -0.8134  -0.7877  -0.7505  -0.5072  -0.3076  -0.2432  -0.0638  -0.0555

          k = 0.0000 0.2018 0.3129 ( 26905 PWs)   bands (ev):

   -24.6910 -24.6876 -10.1205 -10.0807 -10.0411 -10.0369  -9.9398  -9.9292
    -6.1430  -5.5156  -5.4350  -5.3255  -1.9097  -1.7160  -1.5258  -0.9875
    -0.8663  -0.8130  -0.7381  -0.4170  -0.3092  -0.1764  -0.1697  -0.1467

          k = 0.0000 0.2018 0.6257 ( 26881 PWs)   bands (ev):

   -24.6820 -24.6807 -10.3188 -10.3150  -9.9903  -9.9809  -9.9335  -9.9267
    -5.7143  -5.6429  -5.3785  -5.2228  -1.9637  -1.9366  -1.5933  -1.3817
    -0.8224  -0.6795  -0.5578  -0.4084  -0.3479  -0.3365  -0.2120  -0.2040

          k = 0.0000 0.4036 0.0000 ( 26833 PWs)   bands (ev):

   -24.6950 -24.6934 -10.1299 -10.1059 -10.0097  -9.9876  -9.8442  -9.8303
    -6.2076  -5.8976  -5.3971  -5.3101  -1.8692  -1.6776  -1.1807  -0.7825
    -0.7680  -0.7466  -0.5327  -0.5309  -0.4467  -0.3700  -0.1998  -0.1779

          k = 0.0000 0.4036 0.3129 ( 26856 PWs)   bands (ev):

   -24.6900 -24.6887 -10.1064 -10.0766 -10.0483 -10.0258  -9.9501  -9.9479
    -5.9445  -5.6816  -5.4539  -5.3861  -1.7822  -1.7530  -1.4058  -1.0722
    -0.8001  -0.7562  -0.6667  -0.4605  -0.3492  -0.3436  -0.1704  -0.1609

          k = 0.0000 0.4036 0.6257 ( 26872 PWs)   bands (ev):

   -24.6816 -24.6811 -10.3263 -10.3247  -9.9687  -9.9670  -9.9370  -9.9362
    -5.7875  -5.7587  -5.2319  -5.1722  -2.0425  -2.0410  -1.4114  -1.3122
    -0.7048  -0.5837  -0.5252  -0.5211  -0.3777  -0.3695  -0.2935  -0.2327

          k = 0.2000 0.0000 0.0000 ( 26863 PWs)   bands (ev):

   -24.6963 -24.6921 -10.1650 -10.1335  -9.9714  -9.9474  -9.8555  -9.8192
    -6.4674  -5.7791  -5.2402  -5.2389  -2.1769  -1.2841  -1.2719  -1.1444
    -0.7609  -0.7530  -0.7339  -0.5358  -0.3283  -0.2404  -0.0966  -0.0494

          k = 0.2000 0.0000 0.3129 ( 26877 PWs)   bands (ev):

   -24.6910 -24.6876 -10.1084 -10.0979 -10.0385 -10.0343  -9.9486  -9.9215
    -6.1408  -5.5448  -5.3678  -5.3566  -1.9263  -1.6636  -1.5326  -1.0252
    -0.8856  -0.8139  -0.6929  -0.4234  -0.4149  -0.1735  -0.1459  -0.1082

          k = 0.2000 0.0000 0.6257 ( 26880 PWs)   bands (ev):

   -24.6820 -24.6807 -10.3196 -10.3159  -9.9941  -9.9770  -9.9371  -9.9232
    -5.6676  -5.5939  -5.4339  -5.2568  -2.0717  -1.9619  -1.5462  -1.3133
    -0.7823  -0.7148  -0.5666  -0.4497  -0.3117  -0.2964  -0.2451  -0.1684

          k = 0.2000 0.2018 0.0000 ( 26876 PWs)   bands (ev):

   -24.6959 -24.6925 -10.1748 -10.1082 -10.0063  -9.9330  -9.8519  -9.8226
    -6.3940  -5.8003  -5.3446  -5.2207  -2.0513  -1.4763  -1.2796  -0.9486
    -0.7962  -0.7348  -0.6016  -0.5030  -0.4105  -0.3268  -0.1730  -0.0430

          k = 0.2000 0.2018 0.3129 ( 26876 PWs)   bands (ev):

   -24.6907 -24.6879 -10.1175 -10.0796 -10.0586 -10.0225  -9.9509  -9.9226
    -6.0811  -5.5530  -5.4525  -5.3439  -1.8516  -1.6892  -1.5558  -0.9462
    -0.9133  -0.8051  -0.6734  -0.4406  -0.3898  -0.2074  -0.1802  -0.1144

          k = 0.2000 0.2018 0.6257 ( 26868 PWs)   bands (ev):

   -24.6819 -24.6808 -10.3246 -10.3127  -9.9991  -9.9655  -9.9389  -9.9256
    -5.7421  -5.5750  -5.4235  -5.2080  -2.0942  -1.9495  -1.5444  -1.3552
    -0.7144  -0.6509  -0.5544  -0.4230  -0.3942  -0.3017  -0.2693  -0.1443

          k = 0.2000 0.4036 0.0000 ( 26852 PWs)   bands (ev):

   -24.6949 -24.6936 -10.1620 -10.1227  -9.9951  -9.9507  -9.8428  -9.8316
    -6.1962  -5.9497  -5.3733  -5.2921  -1.8161  -1.6479  -1.1891  -0.8263
    -0.8108  -0.7803  -0.6304  -0.4211  -0.4142  -0.3517  -0.2724  -0.1360

          k = 0.2000 0.4036 0.3129 ( 26836 PWs)   bands (ev):

   -24.6898 -24.6888 -10.1145 -10.0916 -10.0492 -10.0224  -9.9469  -9.9311
    -5.9198  -5.7082  -5.4471  -5.3877  -1.7643  -1.7343  -1.4413  -1.1638
    -0.7839  -0.7025  -0.6502  -0.4707  -0.3462  -0.2688  -0.2074  -0.1706

          k = 0.2000 0.4036 0.6257 ( 26891 PWs)   bands (ev):

   -24.6815 -24.6811 -10.3241 -10.3170  -9.9899  -9.9701  -9.9355  -9.9290
    -5.7638  -5.6944  -5.2855  -5.1992  -2.0860  -2.0085  -1.4836  -1.3966
    -0.6991  -0.6140  -0.4861  -0.3969  -0.3876  -0.3134  -0.2820  -0.1882

          k = 0.4000 0.0000 0.0000 ( 26826 PWs)   bands (ev):

   -24.6950 -24.6934 -10.1226 -10.1061 -10.0096  -9.9964  -9.8442  -9.8304
    -6.2286  -5.9469  -5.3130  -5.2891  -1.8850  -1.5766  -1.0447  -0.8529
    -0.7161  -0.7139  -0.7138  -0.5282  -0.5220  -0.4330  -0.2815  -0.1774

          k = 0.4000 0.0000 0.3129 ( 26880 PWs)   bands (ev):

   -24.6900 -24.6887 -10.0924 -10.0727 -10.0675 -10.0342  -9.9547  -9.9365
    -5.9405  -5.6916  -5.4195  -5.3921  -1.7831  -1.6567  -1.4602  -1.1027
    -0.8131  -0.7222  -0.7196  -0.5865  -0.3547  -0.2637  -0.1739  -0.1647

          k = 0.4000 0.0000 0.6257 ( 26868 PWs)   bands (ev):

   -24.6816 -24.6811 -10.3285 -10.3269  -9.9764  -9.9632  -9.9407  -9.9290
    -5.7068  -5.6778  -5.3088  -5.2400  -2.1901  -2.1412  -1.3299  -1.2052
    -0.6789  -0.6187  -0.5343  -0.4655  -0.4506  -0.2646  -0.2509  -0.2431

          k = 0.4000 0.2018 0.0000 ( 26854 PWs)   bands (ev):

   -24.6949 -24.6936 -10.1603 -10.1209  -9.9975  -9.9528  -9.8428  -9.8316
    -6.2097  -5.9763  -5.3325  -5.2713  -1.8232  -1.5922  -1.1096  -0.8462
    -0.7829  -0.7483  -0.7200  -0.5202  -0.4584  -0.3838  -0.2786  -0.1324

          k = 0.4000 0.2018 0.3129 ( 26853 PWs)   bands (ev):

   -24.6898 -24.6888 -10.1102 -10.0890 -10.0570 -10.0272  -9.9460  -9.9281
    -5.9177  -5.7126  -5.4318  -5.3869  -1.7609  -1.6632  -1.4963  -1.1933
    -0.7519  -0.7218  -0.6537  -0.5191  -0.3614  -0.2735  -0.1984  -0.1613

          k = 0.4000 0.2018 0.6257 ( 26875 PWs)   bands (ev):

   -24.6815 -24.6811 -10.3255 -10.3184  -9.9912  -9.9711  -9.9350  -9.9273
    -5.7149  -5.6257  -5.3495  -5.2423  -2.1662  -2.1025  -1.3988  -1.3365
    -0.6682  -0.6117  -0.5189  -0.4793  -0.3645  -0.2899  -0.2306  -0.1476

          k = 0.4000 0.4036 0.0000 ( 26867 PWs)   bands (ev):

   -24.6945 -24.6940 -10.1826 -10.1662  -9.9487  -9.9288  -9.8392  -9.8349
    -6.1494  -6.0575  -5.3190  -5.2833  -1.6985  -1.6195  -1.1708  -1.0134
    -0.8332  -0.8176  -0.6114  -0.4616  -0.3684  -0.3392  -0.2372  -0.1480

          k = 0.4000 0.4036 0.3129 ( 26849 PWs)   bands (ev):

   -24.6895 -24.6891 -10.1237 -10.1153 -10.0408 -10.0288  -9.9282  -9.9201
    -5.8557  -5.7757  -5.4254  -5.4004  -1.7224  -1.6829  -1.4941  -1.3633
    -0.6817  -0.6579  -0.5581  -0.4613  -0.3459  -0.3054  -0.2343  -0.1719

          k = 0.4000 0.4036 0.6257 ( 26885 PWs)   bands (ev):

   -24.6814 -24.6812 -10.3145 -10.3098 -10.0031  -9.9926  -9.9283  -9.9264
    -5.6733  -5.6100  -5.3582  -5.2890  -2.0879  -2.0388  -1.5612  -1.5169
    -0.6600  -0.6179  -0.4323  -0.4123  -0.3112  -0.3046  -0.1620  -0.1178

     highest occupied level (ev):     0.0049

!    total energy              =    -156.46894292 Ry
     estimated scf accuracy    <          1.0E-11 Ry

     The total energy is the sum of the following terms:
     one-electron contribution =     -35.92930362 Ry
     hartree contribution      =      30.98944905 Ry
     xc contribution           =     -49.06129133 Ry
     ewald contribution        =    -102.46779702 Ry

     convergence has been achieved in  12 iterations

     Writing all to output data dir ./pwscf.save/ :
     XML data file, charge density, pseudopotentials, collected wavefunctions

     init_run     :     10.67s CPU     11.86s WALL (       1 calls)
     electrons    :    263.50s CPU    265.49s WALL (       1 calls)

     Called by init_run:
     wfcinit      :      8.34s CPU      8.39s WALL (       1 calls)
     potinit      :      0.59s CPU      1.08s WALL (       1 calls)
     hinit0       :      0.77s CPU      1.37s WALL (       1 calls)

     Called by electrons:
     c_bands      :    234.38s CPU    235.85s WALL (      12 calls)
     sum_band     :     24.59s CPU     24.91s WALL (      12 calls)
     v_of_rho     :      1.88s CPU      1.97s WALL (      13 calls)
     newd         :      2.49s CPU      2.55s WALL (      13 calls)
     mix_rho      :      0.27s CPU      0.28s WALL (      12 calls)

     Called by c_bands:
     init_us_2    :      4.80s CPU      4.87s WALL (     675 calls)
     cegterg      :    211.63s CPU    212.99s WALL (     324 calls)

     Called by *egterg:
     cdiaghg      :      3.25s CPU      3.28s WALL (    1681 calls)
     h_psi        :    151.86s CPU    152.99s WALL (    1708 calls)
     s_psi        :     29.39s CPU     29.52s WALL (    1708 calls)
     g_psi        :      0.57s CPU      0.57s WALL (    1357 calls)

     Called by h_psi:
     h_psi:calbec :     26.33s CPU     26.46s WALL (    1708 calls)
     vloc_psi     :     95.45s CPU     96.34s WALL (    1708 calls)
     add_vuspsi   :     29.60s CPU     29.72s WALL (    1708 calls)

     General routines
     calbec       :     33.23s CPU     33.40s WALL (    2032 calls)
     fft          :      1.58s CPU      2.27s WALL (     167 calls)
     ffts         :      0.47s CPU      0.95s WALL (      25 calls)
     fftw         :     93.89s CPU     94.75s WALL (   65998 calls)
     interpolate  :      0.54s CPU      1.02s WALL (      13 calls)

     Parallel routines

     PWSCF        :   4m35.01s CPU   4m39.04s WALL


   This run was terminated on:  11:17:33  12Aug2024            

=------------------------------------------------------------------------------=
   JOB DONE.
=------------------------------------------------------------------------------=
