&CONTROL
  title = 'pre-ph'
  calculation = 'scf'
  pseudo_dir = '/home/mehlhorn/pseudos/'
/
&SYSTEM
  ecutwfc =   100
  ecutrho =   800
  ibrav = 8
 A = 6.501703893498609,
 B = 6.75760270158277,
 C = 4.596231133608954,
  nat = 22
  ntyp = 3
  occupations = 'fixed'
/
&ELECTRONS
  conv_thr =   1.000000000d-10
/
&IONS
/
ATOMIC_SPECIES
B      10.811 b_pbesol_v1.4.uspp.F.UPF
Ba     137.327 Ba.nc.z_10.oncvpsp4.dojo.v4-sp.upf
H      1.00794 H_ONCV_PBEsol-1.0.upf

K_POINTS automatic
  5 5 5 0 0 0
  
ATOMIC_POSITIONS (crystal)
Ba               0.5000000000        0.5000000000        0.5000025923
Ba               0.0000000000        0.0000000000        0.9999974077
B                0.6040143544        0.2353301065       -0.0000011098
B                0.3959856456        0.7646698935       -0.0000011098
B                0.1040143544        0.2646698935        0.5000011098
B                0.8959856456        0.7353301065        0.5000011098
H                0.4248857459        0.2935233495       -0.0000090305
H                0.5751142541        0.7064766505       -0.0000090305
H                0.9248857459        0.2064766505        0.5000090305
H                0.0751142541        0.7935233495        0.5000090305
H                0.7229357194        0.3785872606        0.0000189009
H                0.2770642806        0.6214127394        0.0000189009
H                0.2229357194        0.1214127394        0.4999810991
H                0.7770642806        0.8785872606        0.4999810991
H                0.6313935697        0.1364160732        0.7793577063
H                0.3686064303        0.8635839268        0.7793577063
H                0.1313935697        0.3635839268        0.7206422937
H                0.8686064303        0.6364160732        0.7206422937
H                0.3686258472        0.8635798222        0.2206459708
H                0.6313741528        0.1364201778        0.2206459708
H                0.8686258472        0.6364201778        0.2793540292
H                0.1313741528        0.3635798222        0.2793540292
