&CONTROL
  title = 'pre-ph'
  calculation = 'scf'
  pseudo_dir = '/home/mehlhorn/pseudos/'
/
&SYSTEM
  ecutwfc =   100
  ecutrho =   800
  ibrav = 8
 A = 6.540322251472403,
 B = 6.777187346970397,
 C = 4.6035938509635805,
  nat = 22
  ntyp = 3
  occupations = 'fixed'
/
&ELECTRONS
  conv_thr =   1.000000000d-10
/
&IONS
/
ATOMIC_SPECIES
B      10.811 b_pbesol_v1.4.uspp.F.UPF
Ba     137.327 Ba.nc.z_10.oncvpsp4.dojo.v4-sp.upf
H      1.00794 H_ONCV_PBEsol-1.0.upf

K_POINTS automatic
  5 5 5 0 0 0
  
ATOMIC_POSITIONS (crystal)
Ba               0.5000000000        0.5000000000        0.5000012861
Ba               0.0000000000        0.0000000000        0.9999987139
B                0.6053314559        0.2360566620       -0.0000028382
B                0.3946685441        0.7639433380       -0.0000028382
B                0.1053314559        0.2639433380        0.5000028382
B                0.8946685441        0.7360566620        0.5000028382
H                0.4269074270        0.2932635156       -0.0000088206
H                0.5730925730        0.7067364844       -0.0000088206
H                0.9269074270        0.2067364844        0.5000088206
H                0.0730925730        0.7932635156        0.5000088206
H                0.7228104583        0.3794698421        0.0000201276
H                0.2771895417        0.6205301579        0.0000201276
H                0.2228104583        0.1205301579        0.4999798724
H                0.7771895417        0.8794698421        0.4999798724
H                0.6329963885        0.1374794971        0.7796763638
H                0.3670036115        0.8625205029        0.7796763638
H                0.1329963885        0.3625205029        0.7203236362
H                0.8670036115        0.6374794971        0.7203236362
H                0.3670224657        0.8625141628        0.2203253153
H                0.6329775343        0.1374858372        0.2203253153
H                0.8670224657        0.6374858372        0.2796746847
H                0.1329775343        0.3625141628        0.2796746847
