&CONTROL
  title = 'InitGeomOpt'
  calculation = 'vc-relax'
  etot_conv_thr =   1d-05
  forc_conv_thr =   1d-05
  pseudo_dir = '/home/mehlhorn/pseudos/'
/
&SYSTEM
  ecutwfc = 100
  ecutrho = 800
  ibrav = 8
  A = 6.677969914
  B = 6.848665741
  C = 4.623740075
  nat = 22
  ntyp = 3
  occupations = 'fixed'
/
&ELECTRONS
  conv_thr =   1.000000000d-10
/
&IONS
/
&CELL
  cell_dynamics = 'bfgs'
  press_conv_thr = 0.1
/
ATOMIC_SPECIES
B      10.811 b_pbesol_v1.4.uspp.F.UPF
Ba     137.327 Ba.nc.z_10.oncvpsp4.dojo.v4-sp.upf
H      1.00794 H_ONCV_PBEsol-1.0.upf  		

ATOMIC_POSITIONS (crystal)
Ba               0.5000000000        0.5000000000        0.5000609583
Ba               0.0000000000        0.0000000000        0.9999390417
B                0.6102602611        0.2391994492        0.0000052634
B                0.3897397389        0.7608005508        0.0000052634
B                0.1102602611        0.2608005508        0.4999947366
B                0.8897397389        0.7391994492        0.4999947366
H                0.4341140256        0.2921463895        0.0002671763
H                0.5658859744        0.7078536105        0.0002671763
H                0.9341140256        0.2078536105        0.4997328237
H                0.0658859744        0.7921463895        0.4997328237
H                0.7220604182        0.3835391137        0.0001489709
H                0.2779395818        0.6164608863        0.0001489709
H                0.2220604182        0.1164608863        0.4998510291
H                0.7779395818        0.8835391137        0.4998510291
H                0.6391800484        0.1420442909        0.7804617790
H                0.3608199516        0.8579557091        0.7804617790
H                0.1391800484        0.3579557091        0.7195382210
H                0.8608199516        0.6420442909        0.7195382210
H                0.3604808781        0.8578875917        0.2194824761
H                0.6395191219        0.1421124083        0.2194824761
H                0.8604808781        0.6421124083        0.2805175239
H                0.1395191219        0.3578875917        0.2805175239

K_POINTS automatic
  4 4 4 0 0 0
  
