&CONTROL
  title = 'pre-ph'
  calculation = 'scf'
  pseudo_dir = '/home/mehlhorn/pseudos/'
/
&SYSTEM
  ecutwfc =   100
  ecutrho =   800
  ibrav = 8
 A = 6.8672323902240695,
 B = 6.946527567238424,
 C = 4.632176651355434,
  nat = 22
  ntyp = 3
  occupations = 'fixed'
/
&ELECTRONS
  conv_thr =   1.000000000d-10
/
&IONS
/
ATOMIC_SPECIES
B      10.811 b_pbesol_v1.4.uspp.F.UPF
Ba     137.327 Ba.nc.z_10.oncvpsp4.dojo.v4-sp.upf
H      1.00794 H_ONCV_PBEsol-1.0.upf

K_POINTS automatic
  5 5 5 0 0 0
  
ATOMIC_POSITIONS (crystal)
Ba               0.5000000000        0.5000000000        0.4999991600
Ba               0.0000000000        0.0000000000        1.0000008400
B                0.6178438196        0.2452654557        0.0000026793
B                0.3821561804        0.7547345443        0.0000026793
B                0.1178438196        0.2547345443        0.4999973207
B                0.8821561804        0.7452654557        0.4999973207
H                0.4440304388        0.2893838220       -0.0000213518
H                0.5559695612        0.7106161780       -0.0000213518
H                0.9440304388        0.2106161780        0.5000213518
H                0.0559695612        0.7893838220        0.5000213518
H                0.7194740441        0.3925434562        0.0000058700
H                0.2805259559        0.6074565438        0.0000058700
H                0.2194740441        0.1074565438        0.4999941300
H                0.7805259559        0.8925434562        0.4999941300
H                0.6506240136        0.1509780059        0.7805845702
H                0.3493759864        0.8490219941        0.7805845702
H                0.1506240136        0.3490219941        0.7194154298
H                0.8493759864        0.6509780059        0.7194154298
H                0.3493889289        0.8490210277        0.2194275296
H                0.6506110711        0.1509789723        0.2194275296
H                0.8493889289        0.6509789723        0.2805724704
H                0.1506110711        0.3490210277        0.2805724704
