&CONTROL
  title = 'pre-ph'
  calculation = 'scf'
  pseudo_dir = '/home/mehlhorn/pseudos/'
/
&SYSTEM
  ecutwfc =   100
  ecutrho =   800
  ibrav = 8
 A = 6.73865377416012,
 B = 6.880188751773004,
 C = 4.629252578915551,
  nat = 22
  ntyp = 3
  occupations = 'fixed'
/
&ELECTRONS
  conv_thr =   1.000000000d-10
/
&IONS
/
ATOMIC_SPECIES
B      10.811 b_pbesol_v1.4.uspp.F.UPF
Ba     137.327 Ba.nc.z_10.oncvpsp4.dojo.v4-sp.upf
H      1.00794 H_ONCV_PBEsol-1.0.upf

K_POINTS automatic
  5 5 5 0 0 0
  
ATOMIC_POSITIONS (crystal)
Ba               0.5000000000        0.5000000000        0.5000002203
Ba               0.0000000000        0.0000000000        0.9999997797
B                0.6125513967        0.2409124536        0.0000009366
B                0.3874486033        0.7590875464        0.0000009366
B                0.1125513967        0.2590875464        0.4999990634
B                0.8874486033        0.7409124536        0.4999990634
H                0.4372283231        0.2914240069       -0.0000198951
H                0.5627716769        0.7085759931       -0.0000198951
H                0.9372283231        0.2085759931        0.5000198951
H                0.0627716769        0.7914240069        0.5000198951
H                0.7214068693        0.3860008139        0.0000120007
H                0.2785931307        0.6139991861        0.0000120007
H                0.2214068693        0.1139991861        0.4999879993
H                0.7785931307        0.8860008139        0.4999879993
H                0.6426209361        0.1445717040        0.7806666595
H                0.3573790639        0.8554282960        0.7806666595
H                0.1426209361        0.3554282960        0.7193333405
H                0.8573790639        0.6445717040        0.7193333405
H                0.3573937284        0.8554269341        0.2193408953
H                0.6426062716        0.1445730659        0.2193408953
H                0.8573937284        0.6445730659        0.2806591047
H                0.1426062716        0.3554269341        0.2806591047
