&CONTROL
  title = 'volume variation'
  calculation = 'vc-relax'
  etot_conv_thr =   1d-05
  forc_conv_thr =   1d-05
  pseudo_dir = '/home/mehlhorn/pseudos/'
  nstep = 100
/

&SYSTEM
  ecutwfc =   100
  ecutrho =   800
  ibrav = 8
  A = 6.776495822010908,
  B = 6.949777045827907,
  C = 4.692006150881694,
  nat = 22
  ntyp = 3  
  occupations = 'fixed'
/

&ELECTRONS
  conv_thr =   1.000000000d-10
/

&IONS
/

&CELL
  cell_dofree = 'ibrav+shape'
/

ATOMIC_SPECIES
B      10.811 b_pbesol_v1.4.uspp.F.UPF
Ba     137.327 Ba.nc.z_10.oncvpsp4.dojo.v4-sp.upf
H      1.00794 H_ONCV_PBEsol-1.0.upf 

K_POINTS automatic
  4 4 4 0 0 0



  
ATOMIC_POSITIONS (crystal)
Ba               0.5000000000        0.5000000000        0.5000991656
Ba               0.0000000000        0.0000000000        0.9999008344
B                0.6102570162        0.2392023802        0.0000656569
B                0.3897429838        0.7607976198        0.0000656569
B                0.1102570162        0.2607976198        0.4999343431
B                0.8897429838        0.7392023802        0.4999343431
H                0.4340972523        0.2921557288        0.0002309332
H                0.5659027477        0.7078442712        0.0002309332
H                0.9340972523        0.2078442712        0.4997690668
H                0.0659027477        0.7921557288        0.4997690668
H                0.7220602679        0.3835550091       -0.0000083716
H                0.2779397321        0.6164449909       -0.0000083716
H                0.2220602679        0.1164449909        0.5000083716
H                0.7779397321        0.8835550091        0.5000083716
H                0.6392499245        0.1420943949        0.7804984139
H                0.3607500755        0.8579056051        0.7804984139
H                0.1392499245        0.3579056051        0.7195015861
H                0.8607500755        0.6420943949        0.7195015861
H                0.3605328308        0.8579559148        0.2195248482
H                0.6394671692        0.1420440852        0.2195248482
H                0.8605328308        0.6420440852        0.2804751518
H                0.1394671692        0.3579559148        0.2804751518
