&CONTROL
  title = 'pre-ph'
  calculation = 'scf'
  pseudo_dir = '/home/mehlhorn/pseudos/'
/
&SYSTEM
  ecutwfc =   100
  ecutrho =   800
  ibrav = 8
 A = 6.618341795142893,
 B = 6.8172919953918605,
 C = 4.6162941301297655,
  nat = 22
  ntyp = 3
  occupations = 'fixed'
/
&ELECTRONS
  conv_thr =   1.000000000d-10
/
&IONS
/
ATOMIC_SPECIES
B      10.811 b_pbesol_v1.4.uspp.F.UPF
Ba     137.327 Ba.nc.z_10.oncvpsp4.dojo.v4-sp.upf
H      1.00794 H_ONCV_PBEsol-1.0.upf

K_POINTS automatic
  5 5 5 0 0 0
  
ATOMIC_POSITIONS (crystal)
Ba               0.5000000000        0.5000000000        0.5000072491
Ba               0.0000000000        0.0000000000        0.9999927509
B                0.6080704341        0.2377267575       -0.0000033954
B                0.3919295659        0.7622732425       -0.0000033954
B                0.1080704341        0.2622732425        0.5000033954
B                0.8919295659        0.7377267575        0.5000033954
H                0.4309799568        0.2926767221       -0.0000130980
H                0.5690200432        0.7073232779       -0.0000130980
H                0.9309799568        0.2073232779        0.5000130980
H                0.0690200432        0.7926767221        0.5000130980
H                0.7224395821        0.3815967418        0.0000190601
H                0.2775604179        0.6184032582        0.0000190601
H                0.2224395821        0.1184032582        0.4999809399
H                0.7775604179        0.8815967418        0.4999809399
H                0.6364722775        0.1399175800        0.7802064645
H                0.3635277225        0.8600824200        0.7802064645
H                0.1364722775        0.3600824200        0.7197935355
H                0.8635277225        0.6399175800        0.7197935355
H                0.3635455963        0.8600751937        0.2197946732
H                0.6364544037        0.1399248063        0.2197946732
H                0.8635455963        0.6399248063        0.2802053268
H                0.1364544037        0.3600751937        0.2802053268
