&CONTROL
  title = 'pre-ph'
  calculation = 'scf'
  pseudo_dir = '/home/mehlhorn/pseudos/'
/
&SYSTEM
  ecutwfc =   100
  ecutrho =   800
  ibrav = 8
 A = 6.7802825207411415,
 B = 6.901995372270966,
 C = 4.631479452437372,
  nat = 22
  ntyp = 3
  occupations = 'fixed'
/
&ELECTRONS
  conv_thr =   1.000000000d-10
/
&IONS
/
ATOMIC_SPECIES
B      10.811 b_pbesol_v1.4.uspp.F.UPF
Ba     137.327 Ba.nc.z_10.oncvpsp4.dojo.v4-sp.upf
H      1.00794 H_ONCV_PBEsol-1.0.upf

K_POINTS automatic
  5 5 5 0 0 0
  
ATOMIC_POSITIONS (crystal)
Ba               0.5000000000        0.5000000000        0.5000163392
Ba               0.0000000000        0.0000000000        0.9999836608
B                0.6141966727        0.2422102342       -0.0000057352
B                0.3858033273        0.7577897658       -0.0000057352
B                0.1141966727        0.2577897658        0.5000057352
B                0.8858033273        0.7422102342        0.5000057352
H                0.4394030413        0.2908555692       -0.0000215049
H                0.5605969587        0.7091444308       -0.0000215049
H                0.9394030413        0.2091444308        0.5000215049
H                0.0605969587        0.7908555692        0.5000215049
H                0.7208817242        0.3878960314        0.0000198559
H                0.2791182758        0.6121039686        0.0000198559
H                0.2208817242        0.1121039686        0.4999801441
H                0.7791182758        0.8878960314        0.4999801441
H                0.6450297372        0.1464688864        0.7807036548
H                0.3549702628        0.8535311136        0.7807036548
H                0.1450297372        0.3535311136        0.7192963452
H                0.8549702628        0.6464688864        0.7192963452
H                0.3549856714        0.8535186658        0.2192966269
H                0.6450143286        0.1464813342        0.2192966269
H                0.8549856714        0.6464813342        0.2807033731
H                0.1450143286        0.3535186658        0.2807033731
