&CONTROL
  title = 'pre-ph'
  calculation = 'scf'
  pseudo_dir = '/home/mehlhorn/pseudos/'
/
&SYSTEM
  ecutwfc =   100
  ecutrho =   800
  ibrav = 8
 A = 6.823092713654239,
 B = 6.924097206715057,
 C = 4.632487420047411,
  nat = 22
  ntyp = 3
  occupations = 'fixed'
/
&ELECTRONS
  conv_thr =   1.000000000d-10
/
&IONS
/
ATOMIC_SPECIES
B      10.811 b_pbesol_v1.4.uspp.F.UPF
Ba     137.327 Ba.nc.z_10.oncvpsp4.dojo.v4-sp.upf
H      1.00794 H_ONCV_PBEsol-1.0.upf

K_POINTS automatic
  5 5 5 0 0 0
  
ATOMIC_POSITIONS (crystal)
Ba               0.5000000000        0.5000000000        0.5000077563
Ba               0.0000000000        0.0000000000        0.9999922437
B                0.6159484668        0.2436541385        0.0000004243
B                0.3840515332        0.7563458615        0.0000004243
B                0.1159484668        0.2563458615        0.4999995757
B                0.8840515332        0.7436541385        0.4999995757
H                0.4416547139        0.2901764384       -0.0000238675
H                0.5583452861        0.7098235616       -0.0000238675
H                0.9416547139        0.2098235616        0.5000238675
H                0.0583452861        0.7901764384        0.5000238675
H                0.7202306838        0.3900715366        0.0000099521
H                0.2797693162        0.6099284634        0.0000099521
H                0.2202306838        0.1099284634        0.4999900479
H                0.7797693162        0.8900715366        0.4999900479
H                0.6476834148        0.1485980342        0.7806799314
H                0.3523165852        0.8514019658        0.7806799314
H                0.1476834148        0.3514019658        0.7193200686
H                0.8523165852        0.6485980342        0.7193200686
H                0.3523321912        0.8513987620        0.2193286214
H                0.6476678088        0.1486012380        0.2193286214
H                0.8523321912        0.6486012380        0.2806713786
H                0.1476678088        0.3513987620        0.2806713786
