&CONTROL
  title = 'pre-ph'
  calculation = 'scf'
  pseudo_dir = '/home/mehlhorn/pseudos/'
/
&SYSTEM
  ecutwfc =   100
  ecutrho =   800
  ibrav = 8
 A = 6.579222475687403,
 B = 6.797045662814617,
 C = 4.610289356149621,
  nat = 22
  ntyp = 3
  occupations = 'fixed'
/
&ELECTRONS
  conv_thr =   1.000000000d-10
/
&IONS
/
ATOMIC_SPECIES
B      10.811 b_pbesol_v1.4.uspp.F.UPF
Ba     137.327 Ba.nc.z_10.oncvpsp4.dojo.v4-sp.upf
H      1.00794 H_ONCV_PBEsol-1.0.upf

K_POINTS automatic
  5 5 5 0 0 0
  
ATOMIC_POSITIONS (crystal)
Ba               0.5000000000        0.5000000000        0.5000047404
Ba               0.0000000000        0.0000000000        0.9999952596
B                0.6066863448        0.2368520549       -0.0000024617
B                0.3933136552        0.7631479451       -0.0000024617
B                0.1066863448        0.2631479451        0.5000024617
B                0.8933136552        0.7368520549        0.5000024617
H                0.4289458936        0.2929886837       -0.0000121714
H                0.5710541064        0.7070113163       -0.0000121714
H                0.9289458936        0.2070113163        0.5000121714
H                0.0710541064        0.7929886837        0.5000121714
H                0.7226548575        0.3804636462        0.0000193536
H                0.2773451425        0.6195363538        0.0000193536
H                0.2226548575        0.1195363538        0.4999806464
H                0.7773451425        0.8804636462        0.4999806464
H                0.6346896106        0.1386420751        0.7799618293
H                0.3653103894        0.8613579249        0.7799618293
H                0.1346896106        0.3613579249        0.7200381707
H                0.8653103894        0.6386420751        0.7200381707
H                0.3653298108        0.8613521130        0.2200405295
H                0.6346701892        0.1386478870        0.2200405295
H                0.8653298108        0.6386478870        0.2799594705
H                0.1346701892        0.3613521130        0.2799594705
